k = 48;
b = 24;
AtomicConstraints =  [|
1, 5|
	1, 6|
	1, 7|
	1, 8|
	1, 9|
	1, 18|
	1, 48|
	1, 46|
	1, 47|
	1, 44|
	1, 45|
	1, 43|
	2, 5|
	2, 6|
	2, 7|
	2, 8|
	2, 9|
	2, 18|
	2, 48|
	2, 46|
	2, 47|
	2, 44|
	2, 45|
	2, 43|
	3, 4|
	3, 18|
	3, 25|
	3, 27|
	3, 31|
	3, 19|
	3, 33|
	3, 20|
	3, 32|
	3, 30|
	3, 48|
	3, 46|
	3, 47|
	3, 44|
	3, 45|
	3, 43|
	4, 18|
	4, 25|
	4, 27|
	4, 31|
	4, 19|
	4, 33|
	4, 20|
	4, 32|
	4, 30|
	4, 48|
	4, 46|
	4, 47|
	4, 44|
	4, 45|
	4, 43|
	5, 6|
	5, 18|
	5, 48|
	5, 46|
	5, 47|
	5, 44|
	5, 45|
	5, 43|
	6, 18|
	6, 48|
	6, 46|
	6, 47|
	6, 44|
	6, 45|
	6, 43|
	10, 7|
	10, 8|
	10, 9|
	10, 18|
	11, 7|
	11, 8|
	11, 9|
	11, 18|
	12, 7|
	12, 8|
	12, 9|
	12, 18|
	13, 7|
	13, 8|
	13, 9|
	13, 18|
	14, 7|
	14, 8|
	14, 9|
	14, 18|
	15, 7|
	16, 7|
	16, 8|
	17, 7|
	17, 8|
	17, 9|
	34, 31|
	34, 19|
	34, 33|
	34, 20|
	34, 32|
	34, 21|
	34, 30|
	34, 22|
	34, 28|
	26, 19|
	26, 20|
	26, 21|
	26, 22|
	26, 23|
	26, 24|
	26, 40|
	26, 36|
	25, 27|
	25, 31|
	25, 19|
	25, 33|
	25, 20|
	25, 30|
	25, 28|
	31, 19|
	31, 20|
	27, 31|
	27, 19|
	27, 33|
	27, 20|
	27, 30|
	27, 28|
	33, 19|
	33, 20|
	33, 21|
	32, 19|
	32, 20|
	32, 21|
	22, 20|
	22, 21|
	23, 21|
	23, 24|
	23, 36|
	30, 31|
	30, 19|
	30, 33|
	30, 20|
	40, 24|
	40, 36|
	40, 37|
	40, 42|
	36, 42|
	39, 36|
	39, 37|
	39, 42|
	39, 35|
	37, 42|
	29, 27|
	29, 31|
	29, 19|
	29, 33|
	29, 20|
	29, 32|
	29, 21|
	29, 30|
	29, 28|
	41, 37|
	41, 42|
	41, 35|
	35, 42|
	28, 31|
	28, 19|
	28, 33|
	28, 20|
	28, 32|
	28, 21|
	38, 34|
	38, 31|
	38, 19|
	38, 33|
	38, 20|
	38, 32|
	38, 21|
	38, 30|
	38, 22|
	38, 28|
	48, 18|
	48, 44|
	48, 45|
	48, 43|
	46, 18|
	46, 44|
	46, 45|
	46, 43|
	47, 18|
	47, 44|
	47, 45|
	47, 43|];
DisjunctiveConstraints =  [|1, 47, 1, 23|
	2, 31, 7, 2|
	3, 9, 3, 33|
	3, 36, 12, 3|
	3, 42, 18, 3|
	3, 43, 3, 19|
	4, 9, 4, 33|
	4, 42, 18, 4|
	4, 43, 4, 19|
	5, 46, 5, 22|
	6, 46, 6, 22|
	8, 9, 8, 7|
	11, 12, 11, 10|
	12, 13, 12, 11|
	13, 14, 13, 12|
	15, 7, 15, 31|
	15, 9, 33, 15|
	16, 8, 16, 32|
	16, 17, 16, 15|
	17, 9, 17, 33|
	34, 46, 34, 22|
	26, 36, 12, 26|
	26, 48, 26, 24|
	26, 47, 26, 23|
	25, 3, 25, 27|
	25, 6, 25, 30|
	25, 7, 25, 31|
	25, 33, 9, 25|
	25, 28, 4, 25|
	25, 43, 25, 19|
	31, 43, 31, 19|
	27, 6, 27, 30|
	27, 7, 27, 31|
	27, 33, 9, 27|
	27, 43, 27, 19|
	33, 32, 33, 31|
	33, 44, 33, 20|
	20, 21, 20, 19|
	32, 22, 32, 33|
	32, 45, 32, 21|
	22, 23, 22, 32|
	23, 40, 23, 22|
	23, 48, 23, 24|
	30, 43, 30, 19|
	40, 39, 40, 23|
	36, 37, 36, 24|
	39, 18, 39, 42|
	39, 41, 39, 40|
	37, 35, 37, 36|
	29, 4, 29, 28|
	29, 9, 29, 33|
	29, 38, 29, 25|
	29, 44, 29, 20|
	28, 44, 28, 20|
	38, 46, 38, 22|
	46, 47, 46, 48|
	45, 43, 45, 44|];
SoftAtomicConstraints =  [|
2, 1|
8, 7|
9, 8|
11, 10|
12, 11|
13, 12|
14, 13|
16, 15|
17, 16|
20, 19|
21, 20|
23, 22|
40, 23|
36, 24|
29, 25|
34, 27|
26, 28|
38, 29|
28, 30|
33, 31|
22, 32|
32, 33|
37, 36|
35, 37|
41, 39|
39, 40|
45, 44|
43, 45|
47, 46|
46, 48|];
DirectSuccessors =  [1,
2,
25,
26,
27,
19,
20,
21,
30,
22,
23,
24,
29,
48,
46,
47,
44,
45,
43];
